8636 9364 965
3328 14672 914
7625 10375 1049
8726 9274 926
3824 14176 1046
5485 12515 1155
5531 13469 885
8440 10560 859
7298 11702 1027
4713 14287 1007
6854 11146 1096
4109 13891 1084
8153 10847 970
4451 14549 939
5136 12864 1146
6788 11212 1100
6289 12711 1054
4574 14426 987
3451 14549 962
8799 9201 886
5367 13633 1053
